0 109767
1 109774
2 109818
3 109852
4 110067
5 110154
6 110181
7 110205
8 110287
9 110312
10 110339
11 110359
12 110368
13 110480
14 110550
15 110573
16 110580
17 110588
18 110632
19 110725
20 110748
21 110762
22 110776
23 110800
24 110807
25 110847
26 110878
27 110906
28 110928
29 110976
30 110989
31 111013
32 111025
33 111037
34 111040
35 111057
36 111072
37 111087
38 111185
39 111209
40 111223
41 111393
42 111407
43 111469
44 111487
45 111499
46 111523
47 111582
48 111599
49 111634
50 111648
51 111716
52 111728
53 111743
54 111795
55 111802
56 111819
57 111832
58 111888
59 111910
60 111937
61 112012
62 112055
63 112077
64 112101
65 112137
66 112158
67 112168
68 112265
69 112315
